param set_len = 22;
param target_sum = 5194932585;
param values := [1] 735526326 [2] 151741739 [3] 210466756 [4] 597476674 [5] 859017242 [6] 553326222 [7] 456510795 [8] 182593459 [9] 748982162 [10] 998057563 [11] 517799846 [12] 318505911 [13] 199712752 [14] 224398755 [15] 446937014 [16] 369563893 [17] 627676875 [18] 554842010 [19] 662932313 [20] 598370723 [21] 909335793 [22] 685112756 ;
